p cnf 479 1933
-1 295 0
-2 296 0
-295 296 0
-295 -2 0
-3 297 0
-296 297 0
-296 -3 0
-4 298 0
-297 298 0
-297 -4 0
-5 299 0
-298 299 0
-298 -5 0
-299 -6 0
-1 43 0
-1 7 0
-2 44 0
-2 8 0
-3 45 0
-3 9 0
-4 46 0
-4 10 0
-5 47 0
-5 11 0
-6 48 0
-6 12 0
-7 300 0
-8 301 0
-300 301 0
-300 -8 0
-9 302 0
-301 302 0
-301 -9 0
-10 303 0
-302 303 0
-302 -10 0
-11 304 0
-303 304 0
-303 -11 0
-304 -12 0
-7 1 13 0
-7 1 49 0
-7 13 49 0
-8 2 14 0
-8 2 50 0
-8 14 50 0
-9 3 15 0
-9 3 51 0
-9 15 51 0
-10 4 16 0
-10 4 52 0
-10 16 52 0
-11 5 17 0
-11 5 53 0
-11 17 53 0
-12 6 18 0
-12 6 54 0
-12 18 54 0
-7 -1 -13 -49 0
-8 -2 -14 -50 0
-9 -3 -15 -51 0
-10 -4 -16 -52 0
-11 -5 -17 -53 0
-12 -6 -18 -54 0
-13 305 0
-14 306 0
-305 306 0
-305 -14 0
-15 307 0
-306 307 0
-306 -15 0
-16 308 0
-307 308 0
-307 -16 0
-17 309 0
-308 309 0
-308 -17 0
-309 -18 0
-13 7 19 0
-13 7 55 0
-13 19 55 0
-14 8 20 0
-14 8 56 0
-14 20 56 0
-15 9 21 0
-15 9 57 0
-15 21 57 0
-16 10 22 0
-16 10 58 0
-16 22 58 0
-17 11 23 0
-17 11 59 0
-17 23 59 0
-18 12 24 0
-18 12 60 0
-18 24 60 0
-13 -7 -19 -55 0
-14 -8 -20 -56 0
-15 -9 -21 -57 0
-16 -10 -22 -58 0
-17 -11 -23 -59 0
-18 -12 -24 -60 0
-19 310 0
-20 311 0
-310 311 0
-310 -20 0
-21 312 0
-311 312 0
-311 -21 0
-22 313 0
-312 313 0
-312 -22 0
-23 314 0
-313 314 0
-313 -23 0
-314 -24 0
-19 13 25 0
-19 13 61 0
-19 25 61 0
-20 14 26 0
-20 14 62 0
-20 26 62 0
-21 15 27 0
-21 15 63 0
-21 27 63 0
-22 16 28 0
-22 16 64 0
-22 28 64 0
-23 17 29 0
-23 17 65 0
-23 29 65 0
-24 18 30 0
-24 18 66 0
-24 30 66 0
-19 -13 -25 -61 0
-20 -14 -26 -62 0
-21 -15 -27 -63 0
-22 -16 -28 -64 0
-23 -17 -29 -65 0
-24 -18 -30 -66 0
-25 315 0
-26 316 0
-315 316 0
-315 -26 0
-27 317 0
-316 317 0
-316 -27 0
-28 318 0
-317 318 0
-317 -28 0
-29 319 0
-318 319 0
-318 -29 0
-319 -30 0
-25 19 31 0
-25 19 67 0
-25 31 67 0
-26 20 32 0
-26 20 68 0
-26 32 68 0
-27 21 33 0
-27 21 69 0
-27 33 69 0
-28 22 34 0
-28 22 70 0
-28 34 70 0
-29 23 35 0
-29 23 71 0
-29 35 71 0
-30 24 36 0
-30 24 72 0
-30 36 72 0
-25 -19 -31 -67 0
-26 -20 -32 -68 0
-27 -21 -33 -69 0
-28 -22 -34 -70 0
-29 -23 -35 -71 0
-30 -24 -36 -72 0
-31 320 0
-32 321 0
-320 321 0
-320 -32 0
-33 322 0
-321 322 0
-321 -33 0
-34 323 0
-322 323 0
-322 -34 0
-35 324 0
-323 324 0
-323 -35 0
-324 -36 0
-31 25 37 0
-31 25 73 0
-31 37 73 0
-32 26 38 0
-32 26 74 0
-32 38 74 0
-33 27 39 0
-33 27 75 0
-33 39 75 0
-34 28 40 0
-34 28 76 0
-34 40 76 0
-35 29 41 0
-35 29 77 0
-35 41 77 0
-36 30 42 0
-36 30 78 0
-36 42 78 0
-31 -25 -37 -73 0
-32 -26 -38 -74 0
-33 -27 -39 -75 0
-34 -28 -40 -76 0
-35 -29 -41 -77 0
-36 -30 -42 -78 0
-37 325 0
-38 326 0
-325 326 0
-325 -38 0
-39 327 0
-326 327 0
-326 -39 0
-40 328 0
-327 328 0
-327 -40 0
-41 329 0
-328 329 0
-328 -41 0
-329 -42 0
-37 79 0
-37 31 0
-38 80 0
-38 32 0
-39 81 0
-39 33 0
-40 82 0
-40 34 0
-41 83 0
-41 35 0
-42 84 0
-42 36 0
-43 330 0
-44 331 0
-330 331 0
-330 -44 0
-45 332 0
-331 332 0
-331 -45 0
-46 333 0
-332 333 0
-332 -46 0
-47 334 0
-333 334 0
-333 -47 0
-334 -48 0
-43 85 49 0
-43 85 1 0
-43 49 1 0
-44 86 50 0
-44 86 2 0
-44 50 2 0
-45 87 51 0
-45 87 3 0
-45 51 3 0
-46 88 52 0
-46 88 4 0
-46 52 4 0
-47 89 53 0
-47 89 5 0
-47 53 5 0
-48 90 54 0
-48 90 6 0
-48 54 6 0
-43 -85 -49 -1 0
-44 -86 -50 -2 0
-45 -87 -51 -3 0
-46 -88 -52 -4 0
-47 -89 -53 -5 0
-48 -90 -54 -6 0
-50 0
-51 0
-52 0
-53 0
-54 0
49 0
91 55 7 43 0
-91 -55 0
-91 -7 0
-91 -43 0
-55 -7 0
-55 -43 0
-7 -43 0
-55 335 0
-56 336 0
-335 336 0
-335 -56 0
-57 337 0
-336 337 0
-336 -57 0
-58 338 0
-337 338 0
-337 -58 0
-59 339 0
-338 339 0
-338 -59 0
-339 -60 0
-55 97 61 13 0
-55 97 61 49 0
-55 97 13 49 0
-55 61 13 49 0
-56 98 62 14 0
-56 98 62 50 0
-56 98 14 50 0
-56 62 14 50 0
-57 99 63 15 0
-57 99 63 51 0
-57 99 15 51 0
-57 63 15 51 0
-58 100 64 16 0
-58 100 64 52 0
-58 100 16 52 0
-58 64 16 52 0
-59 101 65 17 0
-59 101 65 53 0
-59 101 17 53 0
-59 65 17 53 0
-60 102 66 18 0
-60 102 66 54 0
-60 102 18 54 0
-60 66 18 54 0
-55 -97 -61 -13 0
-55 -97 -61 -49 0
-55 -97 -13 -49 0
-55 -61 -13 -49 0
-56 -98 -62 -14 0
-56 -98 -62 -50 0
-56 -98 -14 -50 0
-56 -62 -14 -50 0
-57 -99 -63 -15 0
-57 -99 -63 -51 0
-57 -99 -15 -51 0
-57 -63 -15 -51 0
-58 -100 -64 -16 0
-58 -100 -64 -52 0
-58 -100 -16 -52 0
-58 -64 -16 -52 0
-59 -101 -65 -17 0
-59 -101 -65 -53 0
-59 -101 -17 -53 0
-59 -65 -17 -53 0
-60 -102 -66 -18 0
-60 -102 -66 -54 0
-60 -102 -18 -54 0
-60 -66 -18 -54 0
-61 340 0
-62 341 0
-340 341 0
-340 -62 0
-63 342 0
-341 342 0
-341 -63 0
-64 343 0
-342 343 0
-342 -64 0
-65 344 0
-343 344 0
-343 -65 0
-344 -66 0
-61 103 67 19 0
-61 103 67 55 0
-61 103 19 55 0
-61 67 19 55 0
-62 104 68 20 0
-62 104 68 56 0
-62 104 20 56 0
-62 68 20 56 0
-63 105 69 21 0
-63 105 69 57 0
-63 105 21 57 0
-63 69 21 57 0
-64 106 70 22 0
-64 106 70 58 0
-64 106 22 58 0
-64 70 22 58 0
-65 107 71 23 0
-65 107 71 59 0
-65 107 23 59 0
-65 71 23 59 0
-66 108 72 24 0
-66 108 72 60 0
-66 108 24 60 0
-66 72 24 60 0
-61 -103 -67 -19 0
-61 -103 -67 -55 0
-61 -103 -19 -55 0
-61 -67 -19 -55 0
-62 -104 -68 -20 0
-62 -104 -68 -56 0
-62 -104 -20 -56 0
-62 -68 -20 -56 0
-63 -105 -69 -21 0
-63 -105 -69 -57 0
-63 -105 -21 -57 0
-63 -69 -21 -57 0
-64 -106 -70 -22 0
-64 -106 -70 -58 0
-64 -106 -22 -58 0
-64 -70 -22 -58 0
-65 -107 -71 -23 0
-65 -107 -71 -59 0
-65 -107 -23 -59 0
-65 -71 -23 -59 0
-66 -108 -72 -24 0
-66 -108 -72 -60 0
-66 -108 -24 -60 0
-66 -72 -24 -60 0
-67 345 0
-68 346 0
-345 346 0
-345 -68 0
-69 347 0
-346 347 0
-346 -69 0
-70 348 0
-347 348 0
-347 -70 0
-71 349 0
-348 349 0
-348 -71 0
-349 -72 0
-67 109 73 25 0
-67 109 73 61 0
-67 109 25 61 0
-67 73 25 61 0
-68 110 74 26 0
-68 110 74 62 0
-68 110 26 62 0
-68 74 26 62 0
-69 111 75 27 0
-69 111 75 63 0
-69 111 27 63 0
-69 75 27 63 0
-70 112 76 28 0
-70 112 76 64 0
-70 112 28 64 0
-70 76 28 64 0
-71 113 77 29 0
-71 113 77 65 0
-71 113 29 65 0
-71 77 29 65 0
-72 114 78 30 0
-72 114 78 66 0
-72 114 30 66 0
-72 78 30 66 0
-67 -109 -73 -25 0
-67 -109 -73 -61 0
-67 -109 -25 -61 0
-67 -73 -25 -61 0
-68 -110 -74 -26 0
-68 -110 -74 -62 0
-68 -110 -26 -62 0
-68 -74 -26 -62 0
-69 -111 -75 -27 0
-69 -111 -75 -63 0
-69 -111 -27 -63 0
-69 -75 -27 -63 0
-70 -112 -76 -28 0
-70 -112 -76 -64 0
-70 -112 -28 -64 0
-70 -76 -28 -64 0
-71 -113 -77 -29 0
-71 -113 -77 -65 0
-71 -113 -29 -65 0
-71 -77 -29 -65 0
-72 -114 -78 -30 0
-72 -114 -78 -66 0
-72 -114 -30 -66 0
-72 -78 -30 -66 0
-73 0
-75 0
-76 0
-77 0
-78 0
74 0
116 80 32 68 0
-116 -80 0
-116 -32 0
-116 -68 0
-80 -32 0
-80 -68 0
-32 -68 0
-79 350 0
-80 351 0
-350 351 0
-350 -80 0
-81 352 0
-351 352 0
-351 -81 0
-82 353 0
-352 353 0
-352 -82 0
-83 354 0
-353 354 0
-353 -83 0
-354 -84 0
-79 121 73 0
-79 121 37 0
-79 73 37 0
-80 122 74 0
-80 122 38 0
-80 74 38 0
-81 123 75 0
-81 123 39 0
-81 75 39 0
-82 124 76 0
-82 124 40 0
-82 76 40 0
-83 125 77 0
-83 125 41 0
-83 77 41 0
-84 126 78 0
-84 126 42 0
-84 78 42 0
-79 -121 -73 -37 0
-80 -122 -74 -38 0
-81 -123 -75 -39 0
-82 -124 -76 -40 0
-83 -125 -77 -41 0
-84 -126 -78 -42 0
-85 355 0
-86 356 0
-355 356 0
-355 -86 0
-87 357 0
-356 357 0
-356 -87 0
-88 358 0
-357 358 0
-357 -88 0
-89 359 0
-358 359 0
-358 -89 0
-359 -90 0
-85 127 91 0
-85 127 43 0
-85 91 43 0
-86 128 92 0
-86 128 44 0
-86 92 44 0
-87 129 93 0
-87 129 45 0
-87 93 45 0
-88 130 94 0
-88 130 46 0
-88 94 46 0
-89 131 95 0
-89 131 47 0
-89 95 47 0
-90 132 96 0
-90 132 48 0
-90 96 48 0
-85 -127 -91 -43 0
-86 -128 -92 -44 0
-87 -129 -93 -45 0
-88 -130 -94 -46 0
-89 -131 -95 -47 0
-90 -132 -96 -48 0
-91 0
-92 0
-94 0
-95 0
-96 0
93 0
135 99 51 87 0
-135 -99 0
-135 -51 0
-135 -87 0
-99 -51 0
-99 -87 0
-51 -87 0
-97 360 0
-98 361 0
-360 361 0
-360 -98 0
-99 362 0
-361 362 0
-361 -99 0
-100 363 0
-362 363 0
-362 -100 0
-101 364 0
-363 364 0
-363 -101 0
-364 -102 0
-97 139 103 55 0
-97 139 103 91 0
-97 139 55 91 0
-97 103 55 91 0
-98 140 104 56 0
-98 140 104 92 0
-98 140 56 92 0
-98 104 56 92 0
-99 141 105 57 0
-99 141 105 93 0
-99 141 57 93 0
-99 105 57 93 0
-100 142 106 58 0
-100 142 106 94 0
-100 142 58 94 0
-100 106 58 94 0
-101 143 107 59 0
-101 143 107 95 0
-101 143 59 95 0
-101 107 59 95 0
-102 144 108 60 0
-102 144 108 96 0
-102 144 60 96 0
-102 108 60 96 0
-97 -139 -103 -55 0
-97 -139 -103 -91 0
-97 -139 -55 -91 0
-97 -103 -55 -91 0
-98 -140 -104 -56 0
-98 -140 -104 -92 0
-98 -140 -56 -92 0
-98 -104 -56 -92 0
-99 -141 -105 -57 0
-99 -141 -105 -93 0
-99 -141 -57 -93 0
-99 -105 -57 -93 0
-100 -142 -106 -58 0
-100 -142 -106 -94 0
-100 -142 -58 -94 0
-100 -106 -58 -94 0
-101 -143 -107 -59 0
-101 -143 -107 -95 0
-101 -143 -59 -95 0
-101 -107 -59 -95 0
-102 -144 -108 -60 0
-102 -144 -108 -96 0
-102 -144 -60 -96 0
-102 -108 -60 -96 0
-103 365 0
-104 366 0
-365 366 0
-365 -104 0
-105 367 0
-366 367 0
-366 -105 0
-106 368 0
-367 368 0
-367 -106 0
-107 369 0
-368 369 0
-368 -107 0
-369 -108 0
-103 145 109 61 0
-103 145 109 97 0
-103 145 61 97 0
-103 109 61 97 0
-104 146 110 62 0
-104 146 110 98 0
-104 146 62 98 0
-104 110 62 98 0
-105 147 111 63 0
-105 147 111 99 0
-105 147 63 99 0
-105 111 63 99 0
-106 148 112 64 0
-106 148 112 100 0
-106 148 64 100 0
-106 112 64 100 0
-107 149 113 65 0
-107 149 113 101 0
-107 149 65 101 0
-107 113 65 101 0
-108 150 114 66 0
-108 150 114 102 0
-108 150 66 102 0
-108 114 66 102 0
-103 -145 -109 -61 0
-103 -145 -109 -97 0
-103 -145 -61 -97 0
-103 -109 -61 -97 0
-104 -146 -110 -62 0
-104 -146 -110 -98 0
-104 -146 -62 -98 0
-104 -110 -62 -98 0
-105 -147 -111 -63 0
-105 -147 -111 -99 0
-105 -147 -63 -99 0
-105 -111 -63 -99 0
-106 -148 -112 -64 0
-106 -148 -112 -100 0
-106 -148 -64 -100 0
-106 -112 -64 -100 0
-107 -149 -113 -65 0
-107 -149 -113 -101 0
-107 -149 -65 -101 0
-107 -113 -65 -101 0
-108 -150 -114 -66 0
-108 -150 -114 -102 0
-108 -150 -66 -102 0
-108 -114 -66 -102 0
-109 370 0
-110 371 0
-370 371 0
-370 -110 0
-111 372 0
-371 372 0
-371 -111 0
-112 373 0
-372 373 0
-372 -112 0
-113 374 0
-373 374 0
-373 -113 0
-374 -114 0
-109 151 115 67 0
-109 151 115 103 0
-109 151 67 103 0
-109 115 67 103 0
-110 152 116 68 0
-110 152 116 104 0
-110 152 68 104 0
-110 116 68 104 0
-111 153 117 69 0
-111 153 117 105 0
-111 153 69 105 0
-111 117 69 105 0
-112 154 118 70 0
-112 154 118 106 0
-112 154 70 106 0
-112 118 70 106 0
-113 155 119 71 0
-113 155 119 107 0
-113 155 71 107 0
-113 119 71 107 0
-114 156 120 72 0
-114 156 120 108 0
-114 156 72 108 0
-114 120 72 108 0
-109 -151 -115 -67 0
-109 -151 -115 -103 0
-109 -151 -67 -103 0
-109 -115 -67 -103 0
-110 -152 -116 -68 0
-110 -152 -116 -104 0
-110 -152 -68 -104 0
-110 -116 -68 -104 0
-111 -153 -117 -69 0
-111 -153 -117 -105 0
-111 -153 -69 -105 0
-111 -117 -69 -105 0
-112 -154 -118 -70 0
-112 -154 -118 -106 0
-112 -154 -70 -106 0
-112 -118 -70 -106 0
-113 -155 -119 -71 0
-113 -155 -119 -107 0
-113 -155 -71 -107 0
-113 -119 -71 -107 0
-114 -156 -120 -72 0
-114 -156 -120 -108 0
-114 -156 -72 -108 0
-114 -120 -72 -108 0
-115 375 0
-116 376 0
-375 376 0
-375 -116 0
-117 377 0
-376 377 0
-376 -117 0
-118 378 0
-377 378 0
-377 -118 0
-119 379 0
-378 379 0
-378 -119 0
-379 -120 0
-115 157 121 73 0
-115 157 121 109 0
-115 157 73 109 0
-115 121 73 109 0
-116 158 122 74 0
-116 158 122 110 0
-116 158 74 110 0
-116 122 74 110 0
-117 159 123 75 0
-117 159 123 111 0
-117 159 75 111 0
-117 123 75 111 0
-118 160 124 76 0
-118 160 124 112 0
-118 160 76 112 0
-118 124 76 112 0
-119 161 125 77 0
-119 161 125 113 0
-119 161 77 113 0
-119 125 77 113 0
-120 162 126 78 0
-120 162 126 114 0
-120 162 78 114 0
-120 126 78 114 0
-115 -157 -121 -73 0
-115 -157 -121 -109 0
-115 -157 -73 -109 0
-115 -121 -73 -109 0
-116 -158 -122 -74 0
-116 -158 -122 -110 0
-116 -158 -74 -110 0
-116 -122 -74 -110 0
-117 -159 -123 -75 0
-117 -159 -123 -111 0
-117 -159 -75 -111 0
-117 -123 -75 -111 0
-118 -160 -124 -76 0
-118 -160 -124 -112 0
-118 -160 -76 -112 0
-118 -124 -76 -112 0
-119 -161 -125 -77 0
-119 -161 -125 -113 0
-119 -161 -77 -113 0
-119 -125 -77 -113 0
-120 -162 -126 -78 0
-120 -162 -126 -114 0
-120 -162 -78 -114 0
-120 -126 -78 -114 0
-121 380 0
-122 381 0
-380 381 0
-380 -122 0
-123 382 0
-381 382 0
-381 -123 0
-124 383 0
-382 383 0
-382 -124 0
-125 384 0
-383 384 0
-383 -125 0
-384 -126 0
-121 163 115 0
-121 163 79 0
-121 115 79 0
-122 164 116 0
-122 164 80 0
-122 116 80 0
-123 165 117 0
-123 165 81 0
-123 117 81 0
-124 166 118 0
-124 166 82 0
-124 118 82 0
-125 167 119 0
-125 167 83 0
-125 119 83 0
-126 168 120 0
-126 168 84 0
-126 120 84 0
-121 -163 -115 -79 0
-122 -164 -116 -80 0
-123 -165 -117 -81 0
-124 -166 -118 -82 0
-125 -167 -119 -83 0
-126 -168 -120 -84 0
-127 385 0
-128 386 0
-385 386 0
-385 -128 0
-129 387 0
-386 387 0
-386 -129 0
-130 388 0
-387 388 0
-387 -130 0
-131 389 0
-388 389 0
-388 -131 0
-389 -132 0
-127 169 133 0
-127 169 85 0
-127 133 85 0
-128 170 134 0
-128 170 86 0
-128 134 86 0
-129 171 135 0
-129 171 87 0
-129 135 87 0
-130 172 136 0
-130 172 88 0
-130 136 88 0
-131 173 137 0
-131 173 89 0
-131 137 89 0
-132 174 138 0
-132 174 90 0
-132 138 90 0
-127 -169 -133 -85 0
-128 -170 -134 -86 0
-129 -171 -135 -87 0
-130 -172 -136 -88 0
-131 -173 -137 -89 0
-132 -174 -138 -90 0
-133 390 0
-134 391 0
-390 391 0
-390 -134 0
-135 392 0
-391 392 0
-391 -135 0
-136 393 0
-392 393 0
-392 -136 0
-137 394 0
-393 394 0
-393 -137 0
-394 -138 0
-133 175 139 91 0
-133 175 139 127 0
-133 175 91 127 0
-133 139 91 127 0
-134 176 140 92 0
-134 176 140 128 0
-134 176 92 128 0
-134 140 92 128 0
-135 177 141 93 0
-135 177 141 129 0
-135 177 93 129 0
-135 141 93 129 0
-136 178 142 94 0
-136 178 142 130 0
-136 178 94 130 0
-136 142 94 130 0
-137 179 143 95 0
-137 179 143 131 0
-137 179 95 131 0
-137 143 95 131 0
-138 180 144 96 0
-138 180 144 132 0
-138 180 96 132 0
-138 144 96 132 0
-133 -175 -139 -91 0
-133 -175 -139 -127 0
-133 -175 -91 -127 0
-133 -139 -91 -127 0
-134 -176 -140 -92 0
-134 -176 -140 -128 0
-134 -176 -92 -128 0
-134 -140 -92 -128 0
-135 -177 -141 -93 0
-135 -177 -141 -129 0
-135 -177 -93 -129 0
-135 -141 -93 -129 0
-136 -178 -142 -94 0
-136 -178 -142 -130 0
-136 -178 -94 -130 0
-136 -142 -94 -130 0
-137 -179 -143 -95 0
-137 -179 -143 -131 0
-137 -179 -95 -131 0
-137 -143 -95 -131 0
-138 -180 -144 -96 0
-138 -180 -144 -132 0
-138 -180 -96 -132 0
-138 -144 -96 -132 0
-139 395 0
-140 396 0
-395 396 0
-395 -140 0
-141 397 0
-396 397 0
-396 -141 0
-142 398 0
-397 398 0
-397 -142 0
-143 399 0
-398 399 0
-398 -143 0
-399 -144 0
-139 181 145 97 0
-139 181 145 133 0
-139 181 97 133 0
-139 145 97 133 0
-140 182 146 98 0
-140 182 146 134 0
-140 182 98 134 0
-140 146 98 134 0
-141 183 147 99 0
-141 183 147 135 0
-141 183 99 135 0
-141 147 99 135 0
-142 184 148 100 0
-142 184 148 136 0
-142 184 100 136 0
-142 148 100 136 0
-143 185 149 101 0
-143 185 149 137 0
-143 185 101 137 0
-143 149 101 137 0
-144 186 150 102 0
-144 186 150 138 0
-144 186 102 138 0
-144 150 102 138 0
-139 -181 -145 -97 0
-139 -181 -145 -133 0
-139 -181 -97 -133 0
-139 -145 -97 -133 0
-140 -182 -146 -98 0
-140 -182 -146 -134 0
-140 -182 -98 -134 0
-140 -146 -98 -134 0
-141 -183 -147 -99 0
-141 -183 -147 -135 0
-141 -183 -99 -135 0
-141 -147 -99 -135 0
-142 -184 -148 -100 0
-142 -184 -148 -136 0
-142 -184 -100 -136 0
-142 -148 -100 -136 0
-143 -185 -149 -101 0
-143 -185 -149 -137 0
-143 -185 -101 -137 0
-143 -149 -101 -137 0
-144 -186 -150 -102 0
-144 -186 -150 -138 0
-144 -186 -102 -138 0
-144 -150 -102 -138 0
-145 0
-146 0
-148 0
-149 0
-150 0
147 0
189 153 105 141 0
-189 -153 0
-189 -105 0
-189 -141 0
-153 -105 0
-153 -141 0
-105 -141 0
-152 0
-153 0
-154 0
-155 0
-156 0
151 0
193 157 109 145 0
-193 -157 0
-193 -109 0
-193 -145 0
-157 -109 0
-157 -145 0
-109 -145 0
-157 400 0
-158 401 0
-400 401 0
-400 -158 0
-159 402 0
-401 402 0
-401 -159 0
-160 403 0
-402 403 0
-402 -160 0
-161 404 0
-403 404 0
-403 -161 0
-404 -162 0
-157 199 163 115 0
-157 199 163 151 0
-157 199 115 151 0
-157 163 115 151 0
-158 200 164 116 0
-158 200 164 152 0
-158 200 116 152 0
-158 164 116 152 0
-159 201 165 117 0
-159 201 165 153 0
-159 201 117 153 0
-159 165 117 153 0
-160 202 166 118 0
-160 202 166 154 0
-160 202 118 154 0
-160 166 118 154 0
-161 203 167 119 0
-161 203 167 155 0
-161 203 119 155 0
-161 167 119 155 0
-162 204 168 120 0
-162 204 168 156 0
-162 204 120 156 0
-162 168 120 156 0
-157 -199 -163 -115 0
-157 -199 -163 -151 0
-157 -199 -115 -151 0
-157 -163 -115 -151 0
-158 -200 -164 -116 0
-158 -200 -164 -152 0
-158 -200 -116 -152 0
-158 -164 -116 -152 0
-159 -201 -165 -117 0
-159 -201 -165 -153 0
-159 -201 -117 -153 0
-159 -165 -117 -153 0
-160 -202 -166 -118 0
-160 -202 -166 -154 0
-160 -202 -118 -154 0
-160 -166 -118 -154 0
-161 -203 -167 -119 0
-161 -203 -167 -155 0
-161 -203 -119 -155 0
-161 -167 -119 -155 0
-162 -204 -168 -120 0
-162 -204 -168 -156 0
-162 -204 -120 -156 0
-162 -168 -120 -156 0
-163 405 0
-164 406 0
-405 406 0
-405 -164 0
-165 407 0
-406 407 0
-406 -165 0
-166 408 0
-407 408 0
-407 -166 0
-167 409 0
-408 409 0
-408 -167 0
-409 -168 0
-163 205 157 0
-163 205 121 0
-163 157 121 0
-164 206 158 0
-164 206 122 0
-164 158 122 0
-165 207 159 0
-165 207 123 0
-165 159 123 0
-166 208 160 0
-166 208 124 0
-166 160 124 0
-167 209 161 0
-167 209 125 0
-167 161 125 0
-168 210 162 0
-168 210 126 0
-168 162 126 0
-163 -205 -157 -121 0
-164 -206 -158 -122 0
-165 -207 -159 -123 0
-166 -208 -160 -124 0
-167 -209 -161 -125 0
-168 -210 -162 -126 0
-169 0
-170 0
-171 0
-173 0
-174 0
172 0
214 178 130 0
-214 -178 0
-214 -130 0
-178 -130 0
-175 0
-176 0
-177 0
-178 0
-180 0
179 0
221 185 137 173 0
-221 -185 0
-221 -137 0
-221 -173 0
-185 -137 0
-185 -173 0
-137 -173 0
-181 410 0
-182 411 0
-410 411 0
-410 -182 0
-183 412 0
-411 412 0
-411 -183 0
-184 413 0
-412 413 0
-412 -184 0
-185 414 0
-413 414 0
-413 -185 0
-414 -186 0
-181 223 187 139 0
-181 223 187 175 0
-181 223 139 175 0
-181 187 139 175 0
-182 224 188 140 0
-182 224 188 176 0
-182 224 140 176 0
-182 188 140 176 0
-183 225 189 141 0
-183 225 189 177 0
-183 225 141 177 0
-183 189 141 177 0
-184 226 190 142 0
-184 226 190 178 0
-184 226 142 178 0
-184 190 142 178 0
-185 227 191 143 0
-185 227 191 179 0
-185 227 143 179 0
-185 191 143 179 0
-186 228 192 144 0
-186 228 192 180 0
-186 228 144 180 0
-186 192 144 180 0
-181 -223 -187 -139 0
-181 -223 -187 -175 0
-181 -223 -139 -175 0
-181 -187 -139 -175 0
-182 -224 -188 -140 0
-182 -224 -188 -176 0
-182 -224 -140 -176 0
-182 -188 -140 -176 0
-183 -225 -189 -141 0
-183 -225 -189 -177 0
-183 -225 -141 -177 0
-183 -189 -141 -177 0
-184 -226 -190 -142 0
-184 -226 -190 -178 0
-184 -226 -142 -178 0
-184 -190 -142 -178 0
-185 -227 -191 -143 0
-185 -227 -191 -179 0
-185 -227 -143 -179 0
-185 -191 -143 -179 0
-186 -228 -192 -144 0
-186 -228 -192 -180 0
-186 -228 -144 -180 0
-186 -192 -144 -180 0
-187 415 0
-188 416 0
-415 416 0
-415 -188 0
-189 417 0
-416 417 0
-416 -189 0
-190 418 0
-417 418 0
-417 -190 0
-191 419 0
-418 419 0
-418 -191 0
-419 -192 0
-187 229 193 145 0
-187 229 193 181 0
-187 229 145 181 0
-187 193 145 181 0
-188 230 194 146 0
-188 230 194 182 0
-188 230 146 182 0
-188 194 146 182 0
-189 231 195 147 0
-189 231 195 183 0
-189 231 147 183 0
-189 195 147 183 0
-190 232 196 148 0
-190 232 196 184 0
-190 232 148 184 0
-190 196 148 184 0
-191 233 197 149 0
-191 233 197 185 0
-191 233 149 185 0
-191 197 149 185 0
-192 234 198 150 0
-192 234 198 186 0
-192 234 150 186 0
-192 198 150 186 0
-187 -229 -193 -145 0
-187 -229 -193 -181 0
-187 -229 -145 -181 0
-187 -193 -145 -181 0
-188 -230 -194 -146 0
-188 -230 -194 -182 0
-188 -230 -146 -182 0
-188 -194 -146 -182 0
-189 -231 -195 -147 0
-189 -231 -195 -183 0
-189 -231 -147 -183 0
-189 -195 -147 -183 0
-190 -232 -196 -148 0
-190 -232 -196 -184 0
-190 -232 -148 -184 0
-190 -196 -148 -184 0
-191 -233 -197 -149 0
-191 -233 -197 -185 0
-191 -233 -149 -185 0
-191 -197 -149 -185 0
-192 -234 -198 -150 0
-192 -234 -198 -186 0
-192 -234 -150 -186 0
-192 -198 -150 -186 0
-193 0
-194 0
-195 0
-196 0
-198 0
197 0
239 203 155 191 0
-239 -203 0
-239 -155 0
-239 -191 0
-203 -155 0
-203 -191 0
-155 -191 0
-199 420 0
-200 421 0
-420 421 0
-420 -200 0
-201 422 0
-421 422 0
-421 -201 0
-202 423 0
-422 423 0
-422 -202 0
-203 424 0
-423 424 0
-423 -203 0
-424 -204 0
-199 241 205 157 0
-199 241 205 193 0
-199 241 157 193 0
-199 205 157 193 0
-200 242 206 158 0
-200 242 206 194 0
-200 242 158 194 0
-200 206 158 194 0
-201 243 207 159 0
-201 243 207 195 0
-201 243 159 195 0
-201 207 159 195 0
-202 244 208 160 0
-202 244 208 196 0
-202 244 160 196 0
-202 208 160 196 0
-203 245 209 161 0
-203 245 209 197 0
-203 245 161 197 0
-203 209 161 197 0
-204 246 210 162 0
-204 246 210 198 0
-204 246 162 198 0
-204 210 162 198 0
-199 -241 -205 -157 0
-199 -241 -205 -193 0
-199 -241 -157 -193 0
-199 -205 -157 -193 0
-200 -242 -206 -158 0
-200 -242 -206 -194 0
-200 -242 -158 -194 0
-200 -206 -158 -194 0
-201 -243 -207 -159 0
-201 -243 -207 -195 0
-201 -243 -159 -195 0
-201 -207 -159 -195 0
-202 -244 -208 -160 0
-202 -244 -208 -196 0
-202 -244 -160 -196 0
-202 -208 -160 -196 0
-203 -245 -209 -161 0
-203 -245 -209 -197 0
-203 -245 -161 -197 0
-203 -209 -161 -197 0
-204 -246 -210 -162 0
-204 -246 -210 -198 0
-204 -246 -162 -198 0
-204 -210 -162 -198 0
-205 425 0
-206 426 0
-425 426 0
-425 -206 0
-207 427 0
-426 427 0
-426 -207 0
-208 428 0
-427 428 0
-427 -208 0
-209 429 0
-428 429 0
-428 -209 0
-429 -210 0
-205 247 199 0
-205 247 163 0
-205 199 163 0
-206 248 200 0
-206 248 164 0
-206 200 164 0
-207 249 201 0
-207 249 165 0
-207 201 165 0
-208 250 202 0
-208 250 166 0
-208 202 166 0
-209 251 203 0
-209 251 167 0
-209 203 167 0
-210 252 204 0
-210 252 168 0
-210 204 168 0
-205 -247 -199 -163 0
-206 -248 -200 -164 0
-207 -249 -201 -165 0
-208 -250 -202 -166 0
-209 -251 -203 -167 0
-210 -252 -204 -168 0
-211 430 0
-212 431 0
-430 431 0
-430 -212 0
-213 432 0
-431 432 0
-431 -213 0
-214 433 0
-432 433 0
-432 -214 0
-215 434 0
-433 434 0
-433 -215 0
-434 -216 0
-211 253 217 0
-211 253 169 0
-211 217 169 0
-212 254 218 0
-212 254 170 0
-212 218 170 0
-213 255 219 0
-213 255 171 0
-213 219 171 0
-214 256 220 0
-214 256 172 0
-214 220 172 0
-215 257 221 0
-215 257 173 0
-215 221 173 0
-216 258 222 0
-216 258 174 0
-216 222 174 0
-211 -253 -217 -169 0
-212 -254 -218 -170 0
-213 -255 -219 -171 0
-214 -256 -220 -172 0
-215 -257 -221 -173 0
-216 -258 -222 -174 0
-217 435 0
-218 436 0
-435 436 0
-435 -218 0
-219 437 0
-436 437 0
-436 -219 0
-220 438 0
-437 438 0
-437 -220 0
-221 439 0
-438 439 0
-438 -221 0
-439 -222 0
-217 259 223 175 0
-217 259 223 211 0
-217 259 175 211 0
-217 223 175 211 0
-218 260 224 176 0
-218 260 224 212 0
-218 260 176 212 0
-218 224 176 212 0
-219 261 225 177 0
-219 261 225 213 0
-219 261 177 213 0
-219 225 177 213 0
-220 262 226 178 0
-220 262 226 214 0
-220 262 178 214 0
-220 226 178 214 0
-221 263 227 179 0
-221 263 227 215 0
-221 263 179 215 0
-221 227 179 215 0
-222 264 228 180 0
-222 264 228 216 0
-222 264 180 216 0
-222 228 180 216 0
-217 -259 -223 -175 0
-217 -259 -223 -211 0
-217 -259 -175 -211 0
-217 -223 -175 -211 0
-218 -260 -224 -176 0
-218 -260 -224 -212 0
-218 -260 -176 -212 0
-218 -224 -176 -212 0
-219 -261 -225 -177 0
-219 -261 -225 -213 0
-219 -261 -177 -213 0
-219 -225 -177 -213 0
-220 -262 -226 -178 0
-220 -262 -226 -214 0
-220 -262 -178 -214 0
-220 -226 -178 -214 0
-221 -263 -227 -179 0
-221 -263 -227 -215 0
-221 -263 -179 -215 0
-221 -227 -179 -215 0
-222 -264 -228 -180 0
-222 -264 -228 -216 0
-222 -264 -180 -216 0
-222 -228 -180 -216 0
-223 440 0
-224 441 0
-440 441 0
-440 -224 0
-225 442 0
-441 442 0
-441 -225 0
-226 443 0
-442 443 0
-442 -226 0
-227 444 0
-443 444 0
-443 -227 0
-444 -228 0
-223 265 229 181 0
-223 265 229 217 0
-223 265 181 217 0
-223 229 181 217 0
-224 266 230 182 0
-224 266 230 218 0
-224 266 182 218 0
-224 230 182 218 0
-225 267 231 183 0
-225 267 231 219 0
-225 267 183 219 0
-225 231 183 219 0
-226 268 232 184 0
-226 268 232 220 0
-226 268 184 220 0
-226 232 184 220 0
-227 269 233 185 0
-227 269 233 221 0
-227 269 185 221 0
-227 233 185 221 0
-228 270 234 186 0
-228 270 234 222 0
-228 270 186 222 0
-228 234 186 222 0
-223 -265 -229 -181 0
-223 -265 -229 -217 0
-223 -265 -181 -217 0
-223 -229 -181 -217 0
-224 -266 -230 -182 0
-224 -266 -230 -218 0
-224 -266 -182 -218 0
-224 -230 -182 -218 0
-225 -267 -231 -183 0
-225 -267 -231 -219 0
-225 -267 -183 -219 0
-225 -231 -183 -219 0
-226 -268 -232 -184 0
-226 -268 -232 -220 0
-226 -268 -184 -220 0
-226 -232 -184 -220 0
-227 -269 -233 -185 0
-227 -269 -233 -221 0
-227 -269 -185 -221 0
-227 -233 -185 -221 0
-228 -270 -234 -186 0
-228 -270 -234 -222 0
-228 -270 -186 -222 0
-228 -234 -186 -222 0
-229 0
-230 0
-231 0
-232 0
-233 0
234 0
276 240 192 228 0
-276 -240 0
-276 -192 0
-276 -228 0
-240 -192 0
-240 -228 0
-192 -228 0
-235 445 0
-236 446 0
-445 446 0
-445 -236 0
-237 447 0
-446 447 0
-446 -237 0
-238 448 0
-447 448 0
-447 -238 0
-239 449 0
-448 449 0
-448 -239 0
-449 -240 0
-235 277 241 193 0
-235 277 241 229 0
-235 277 193 229 0
-235 241 193 229 0
-236 278 242 194 0
-236 278 242 230 0
-236 278 194 230 0
-236 242 194 230 0
-237 279 243 195 0
-237 279 243 231 0
-237 279 195 231 0
-237 243 195 231 0
-238 280 244 196 0
-238 280 244 232 0
-238 280 196 232 0
-238 244 196 232 0
-239 281 245 197 0
-239 281 245 233 0
-239 281 197 233 0
-239 245 197 233 0
-240 282 246 198 0
-240 282 246 234 0
-240 282 198 234 0
-240 246 198 234 0
-235 -277 -241 -193 0
-235 -277 -241 -229 0
-235 -277 -193 -229 0
-235 -241 -193 -229 0
-236 -278 -242 -194 0
-236 -278 -242 -230 0
-236 -278 -194 -230 0
-236 -242 -194 -230 0
-237 -279 -243 -195 0
-237 -279 -243 -231 0
-237 -279 -195 -231 0
-237 -243 -195 -231 0
-238 -280 -244 -196 0
-238 -280 -244 -232 0
-238 -280 -196 -232 0
-238 -244 -196 -232 0
-239 -281 -245 -197 0
-239 -281 -245 -233 0
-239 -281 -197 -233 0
-239 -245 -197 -233 0
-240 -282 -246 -198 0
-240 -282 -246 -234 0
-240 -282 -198 -234 0
-240 -246 -198 -234 0
-241 450 0
-242 451 0
-450 451 0
-450 -242 0
-243 452 0
-451 452 0
-451 -243 0
-244 453 0
-452 453 0
-452 -244 0
-245 454 0
-453 454 0
-453 -245 0
-454 -246 0
-241 283 247 199 0
-241 283 247 235 0
-241 283 199 235 0
-241 247 199 235 0
-242 284 248 200 0
-242 284 248 236 0
-242 284 200 236 0
-242 248 200 236 0
-243 285 249 201 0
-243 285 249 237 0
-243 285 201 237 0
-243 249 201 237 0
-244 286 250 202 0
-244 286 250 238 0
-244 286 202 238 0
-244 250 202 238 0
-245 287 251 203 0
-245 287 251 239 0
-245 287 203 239 0
-245 251 203 239 0
-246 288 252 204 0
-246 288 252 240 0
-246 288 204 240 0
-246 252 204 240 0
-241 -283 -247 -199 0
-241 -283 -247 -235 0
-241 -283 -199 -235 0
-241 -247 -199 -235 0
-242 -284 -248 -200 0
-242 -284 -248 -236 0
-242 -284 -200 -236 0
-242 -248 -200 -236 0
-243 -285 -249 -201 0
-243 -285 -249 -237 0
-243 -285 -201 -237 0
-243 -249 -201 -237 0
-244 -286 -250 -202 0
-244 -286 -250 -238 0
-244 -286 -202 -238 0
-244 -250 -202 -238 0
-245 -287 -251 -203 0
-245 -287 -251 -239 0
-245 -287 -203 -239 0
-245 -251 -203 -239 0
-246 -288 -252 -204 0
-246 -288 -252 -240 0
-246 -288 -204 -240 0
-246 -252 -204 -240 0
-247 0
-248 0
-249 0
-250 0
-251 0
252 0
294 246 210 0
-294 -246 0
-294 -210 0
-246 -210 0
-253 455 0
-254 456 0
-455 456 0
-455 -254 0
-255 457 0
-456 457 0
-456 -255 0
-256 458 0
-457 458 0
-457 -256 0
-257 459 0
-458 459 0
-458 -257 0
-459 -258 0
-253 211 0
-253 259 0
-254 212 0
-254 260 0
-255 213 0
-255 261 0
-256 214 0
-256 262 0
-257 215 0
-257 263 0
-258 216 0
-258 264 0
-259 0
-260 0
-261 0
-263 0
-264 0
262 0
220 268 256 0
-220 -268 0
-220 -256 0
-268 -256 0
-265 460 0
-266 461 0
-460 461 0
-460 -266 0
-267 462 0
-461 462 0
-461 -267 0
-268 463 0
-462 463 0
-462 -268 0
-269 464 0
-463 464 0
-463 -269 0
-464 -270 0
-265 223 271 0
-265 223 259 0
-265 271 259 0
-266 224 272 0
-266 224 260 0
-266 272 260 0
-267 225 273 0
-267 225 261 0
-267 273 261 0
-268 226 274 0
-268 226 262 0
-268 274 262 0
-269 227 275 0
-269 227 263 0
-269 275 263 0
-270 228 276 0
-270 228 264 0
-270 276 264 0
-265 -223 -271 -259 0
-266 -224 -272 -260 0
-267 -225 -273 -261 0
-268 -226 -274 -262 0
-269 -227 -275 -263 0
-270 -228 -276 -264 0
-271 465 0
-272 466 0
-465 466 0
-465 -272 0
-273 467 0
-466 467 0
-466 -273 0
-274 468 0
-467 468 0
-467 -274 0
-275 469 0
-468 469 0
-468 -275 0
-469 -276 0
-271 229 277 0
-271 229 265 0
-271 277 265 0
-272 230 278 0
-272 230 266 0
-272 278 266 0
-273 231 279 0
-273 231 267 0
-273 279 267 0
-274 232 280 0
-274 232 268 0
-274 280 268 0
-275 233 281 0
-275 233 269 0
-275 281 269 0
-276 234 282 0
-276 234 270 0
-276 282 270 0
-271 -229 -277 -265 0
-272 -230 -278 -266 0
-273 -231 -279 -267 0
-274 -232 -280 -268 0
-275 -233 -281 -269 0
-276 -234 -282 -270 0
-277 470 0
-278 471 0
-470 471 0
-470 -278 0
-279 472 0
-471 472 0
-471 -279 0
-280 473 0
-472 473 0
-472 -280 0
-281 474 0
-473 474 0
-473 -281 0
-474 -282 0
-277 235 283 0
-277 235 271 0
-277 283 271 0
-278 236 284 0
-278 236 272 0
-278 284 272 0
-279 237 285 0
-279 237 273 0
-279 285 273 0
-280 238 286 0
-280 238 274 0
-280 286 274 0
-281 239 287 0
-281 239 275 0
-281 287 275 0
-282 240 288 0
-282 240 276 0
-282 288 276 0
-277 -235 -283 -271 0
-278 -236 -284 -272 0
-279 -237 -285 -273 0
-280 -238 -286 -274 0
-281 -239 -287 -275 0
-282 -240 -288 -276 0
-283 475 0
-284 476 0
-475 476 0
-475 -284 0
-285 477 0
-476 477 0
-476 -285 0
-286 478 0
-477 478 0
-477 -286 0
-287 479 0
-478 479 0
-478 -287 0
-479 -288 0
-283 241 289 0
-283 241 277 0
-283 289 277 0
-284 242 290 0
-284 242 278 0
-284 290 278 0
-285 243 291 0
-285 243 279 0
-285 291 279 0
-286 244 292 0
-286 244 280 0
-286 292 280 0
-287 245 293 0
-287 245 281 0
-287 293 281 0
-288 246 294 0
-288 246 282 0
-288 294 282 0
-283 -241 -289 -277 0
-284 -242 -290 -278 0
-285 -243 -291 -279 0
-286 -244 -292 -280 0
-287 -245 -293 -281 0
-288 -246 -294 -282 0
-289 0
-291 0
-292 0
-293 0
-294 0
290 0
248 284 0
-248 -284 0
85 97 103 109 115 121 0
13 55 97 139 181 223 265 0
19 61 103 187 271 0
86 98 104 110 116 122 0
128 134 140 158 164 0
182 188 200 206 0
212 218 224 236 242 0
15 57 99 141 183 225 267 0
214 220 226 238 244 0
17 59 101 143 185 227 269 0
23 65 107 191 275 0
30 72 114 240 282 0
36 120 162 204 246 288 0